1
1 
3
1 2 3 
4
6 10 12 14 
25
423539247696576512 711769623848288256 927942405962072064 963971202981036032 981985601490518016 990992800745259008 999859262511644672 999964815627911168 999982407813955584 999995601953488896 999997800976744448 999999450244186112 999999862561046528 999999931280523264 999999991410065408 999999995705032704 999999997852516352 999999999463129088 999999999932891136 999999999966445568 999999999983222784 999999999995805696 999999999997902848 999999999999737856 1000000000000000000 
